; benchmark generated from python API
(set-info :status unknown)
(declare-datatypes ((RealState 0)) (((RMk1 (rval1 Real)) (RMk2 (rval2 Real)))))
 (assert
 (forall ((|v11:0| Real) )(forall ((|v10:1| Real) )(forall ((|v9:2| Real) )(forall ((|v8:3| Real) )(exists ((|v7:4_st| RealState) (val!4136 Real) )(exists ((|v6:5_st| RealState) (val!4137 Real) )(exists ((|v5:6_st| RealState) (val!4138 Real) )(exists ((|v4:7_st| RealState) (val!4139 Real) )(forall ((|v3:8| Real) )(forall ((|v2:9| Real) )(forall ((|v1:10| Real) )(forall ((|v0:11| Real) )(let ((?x906 (+ (+ (+ (* 5.0 |v11:0|) (* 15.0 |v9:2|)) (* (- 8.0) |v8:3|)) (* 20.0 |v9:2|))))
 (let ((?x315 (- 4.0)))
 (let ((?x1509 (+ (+ (+ (* 10.0 (rval2 |v5:6_st|)) (* 2.0 |v9:2|)) (* (- 8.0) |v2:9|)) (* (- 10.0) |v10:1|))))
 (let ((?x2866 (* 15.0 |v2:9|)))
 (let ((?x1801 (+ (+ (* ?x315 (rval2 |v4:7_st|)) (* 8.0 |v3:8|)) (* 19.0 (rval2 |v4:7_st|)))))
 (let ((?x3197 (- 15.0)))
 (let ((?x200 (rval2 |v5:6_st|)))
 (let ((?x326 (* 5.0 ?x200)))
 (let ((?x2142 (+ (+ (+ (* 14.0 |v10:1|) (* (- 9.0) |v8:3|)) (* 17.0 |v10:1|)) ?x326)))
 (let (($x1261 (and (or (<= ?x2142 ?x3197) (<= (+ ?x1801 ?x2866) 7.0)) (and (<= ?x1509 ?x315) (<= ?x906 15.0)))))
 (let ((?x2042 (rval2 |v4:7_st|)))
 (let ((?x253 (- 6.0)))
 (let ((?x2563 (* ?x253 ?x2042)))
 (let ((?x67 (+ (+ (+ (* (- 18.0) |v3:8|) (* 19.0 |v0:11|)) (* (- 19.0) |v8:3|)) ?x2563)))
 (let ((?x2037 (+ (+ (+ (* 16.0 |v0:11|) (* (- 19.0) |v2:9|)) (* (- 10.0) |v9:2|)) (* (- 20.0) (rval2 |v7:4_st|)))))
 (let ((?x1392 (* 19.0 |v2:9|)))
 (let ((?x1623 (- 20.0)))
 (let ((?x2299 (* ?x1623 |v1:10|)))
 (let ((?x2944 (+ (+ (+ (* (- 18.0) (rval2 |v7:4_st|)) (* (- 10.0) |v3:8|)) ?x2299) ?x1392)))
 (let ((?x2834 (+ (+ (+ (* (- 1.0) (rval2 |v6:5_st|)) ?x2563) (* 9.0 (rval2 |v7:4_st|))) (* (- 7.0) ?x2042))))
 (let (($x2424 (or (and (<= ?x2834 8.0) (<= ?x2944 ?x315)) (and (<= ?x2037 19.0) (<= ?x67 14.0)))))
 (let ((?x1379 (+ (+ (+ (* (- 19.0) |v1:10|) (* 14.0 |v1:10|)) (* (- 3.0) |v10:1|)) (* (- 17.0) ?x2042))))
 (let ((?x1112 (+ (+ (+ (* (- 13.0) |v2:9|) (* 8.0 |v9:2|)) (* 10.0 |v8:3|)) (* 7.0 |v8:3|))))
 (let ((?x2503 (- 11.0)))
 (let ((?x2126 (* ?x2503 |v2:9|)))
 (let ((?x636 (+ (+ (+ (* 19.0 |v11:0|) (* (- 9.0) |v11:0|)) (* (- 17.0) |v8:3|)) ?x2126)))
 (let ((?x2603 (- 18.0)))
 (let ((?x2321 (+ (+ (+ (* 0.0 |v3:8|) (* 10.0 ?x200)) (* (- 19.0) |v3:8|)) (* ?x3197 (rval2 |v7:4_st|)))))
 (let (($x505 (and (and (<= ?x2321 ?x2603) (<= ?x636 13.0)) (or (<= ?x1112 ?x1623) (<= ?x1379 12.0)))))
 (let ((?x188 (* 13.0 ?x200)))
 (let ((?x3016 (+ (+ (+ (* 13.0 |v3:8|) (* (- 2.0) |v3:8|)) (* 10.0 (rval2 |v7:4_st|))) ?x188)))
 (let ((?x3012 (- 13.0)))
 (let ((?x3110 (* 8.0 |v9:2|)))
 (let ((?x172 (+ (+ (+ (* 18.0 |v0:11|) (* (- 5.0) |v9:2|)) (* 13.0 |v0:11|)) ?x3110)))
 (let ((?x2523 (rval2 |v6:5_st|)))
 (let ((?x2617 (- 1.0)))
 (let ((?x716 (* ?x2617 ?x2523)))
 (let (($x107 (<= (+ (+ (+ (* (- 9.0) |v9:2|) (* 11.0 |v8:3|)) (* ?x2617 |v2:9|)) ?x716) ?x3012)))
 (let ((?x600 (- 10.0)))
 (let ((?x2223 (* 16.0 |v9:2|)))
 (let (($x2117 (<= (+ (+ (+ (* ?x3197 |v11:0|) (* (- 3.0) |v10:1|)) (* ?x1623 |v2:9|)) ?x2223) ?x600)))
 (let (($x2528 (or (and (and (or $x2117 $x107) (and (<= ?x172 ?x3012) (<= ?x3016 ?x1623))) $x505) (or $x2424 $x1261))))
 (let (($x407 (<= (+ (+ (+ ?x716 (* 16.0 |v0:11|)) (* ?x2503 |v9:2|)) (* 14.0 |v9:2|)) 0.0)))
 (let ((?x204 (- 2.0)))
 (let ((?x1906 (- 9.0)))
 (let ((?x2384 (* ?x1906 |v9:2|)))
 (let ((?x3166 (+ (+ (+ (* ?x2503 ?x2523) (* 9.0 (rval2 |v7:4_st|))) (* (- 17.0) |v1:10|)) ?x2384)))
 (let (($x3027 (not (= |v4:7_st| (RMk1 val!4139)))))
 (let (($x820 (not (= |v5:6_st| (RMk1 val!4138)))))
 (let (($x1286 (not (= |v6:5_st| (RMk1 val!4137)))))
 (let (($x2483 (not (= |v7:4_st| (RMk1 val!4136)))))
 (and $x2483 $x1286 $x820 $x3027 (and (<= ?x3166 ?x204) (or $x407 $x2528)))))))))))))))))))))))))))))))))))))))))))))))))))))))
 )
 )
 )
 )
 )
 )
 )
 )
 )
 )
 )
 )
(check-sat)
